p cnf 42 111
c inputs: 1 2 3 4 5
c variables for gates: 6 ... 37
c outputs: 38 39 40 41 42
c random input: -1 2 -3 -4 -5
6 -1 -4 0
-6 1 0
-6 4 0
7 -2 -3 0
-7 2 0
-7 3 0
8 -6 7 0
-8 6 0
-8 -7 0
9 -7 6 0
-9 7 0
-9 -6 0
10 8 9 0
-10 -8 0
-10 -9 0
11 -1 -4 0
-11 1 0
-11 4 0
12 -2 -3 0
-12 2 0
-12 3 0
13 -12 -11 0
-13 12 0
-13 11 0
14 -1 -5 0
-14 1 0
-14 5 0
15 -2 -4 0
-15 2 0
-15 4 0
16 -15 -14 0
-16 15 0
-16 14 0
17 -1 -5 0
-17 1 0
-17 5 0
18 -17 -13 0
-18 17 0
-18 13 0
19 -2 -4 0
-19 2 0
-19 4 0
20 -19 -13 0
-20 19 0
-20 13 0
21 18 20 0
-21 -18 0
-21 -20 0
22 16 -21 0
-22 -16 0
-22 21 0
23 -1 -5 0
-23 1 0
-23 5 0
24 -2 -4 0
-24 2 0
-24 4 0
25 -24 13 0
-25 24 0
-25 -13 0
26 24 -13 0
-26 -24 0
-26 13 0
27 26 25 0
-27 -26 0
-27 -25 0
28 -23 -27 0
-28 23 0
-28 27 0
29 23 27 0
-29 -23 0
-29 -27 0
30 29 28 0
-30 -29 0
-30 -28 0
31 -2 -5 0
-31 2 0
-31 5 0
32 -31 22 0
-32 31 0
-32 -22 0
33 -2 -5 0
-33 2 0
-33 5 0
34 -33 -22 0
-34 33 0
-34 22 0
35 33 22 0
-35 -33 0
-35 -22 0
36 34 35 0
-36 -34 0
-36 -35 0
37 -1 -3 0
-37 1 0
-37 3 0
-38 37 0
38 -37 0
-39 -10 0
39 10 0
-40 -30 0
40 30 0
-41 -36 0
41 36 0
-42 32 0
42 -32 0
-38 0
-39 0
-40 0
-41 0
-42 0
